(set-info :smt-lib-version 2.6)
(set-logic UFLIA)
(set-info :source |
Generated by: Pierre Carbonnelle
Generated on: 2026-04-28
Generator: https://github.com/xmt-lib/benchmarks
Application: test of grounders
Target solver: Z3
Publications: https://arxiv.org/abs/2602.19102
Time limit: 300
From the DIRT benchmark used to evaluate grounders
|)
(set-info :license "https://creativecommons.org/licenses/by/4.0/")
(set-info :category "crafted")
(set-info :status sat)

(define-fun Node ((x Int)) Bool
  (<= 1 x 21)
)

(declare-fun edge (Int Int) Bool)

(assert (forall ((X Int) (W Int) (Y Int) (Z Int) (T Int))
           (not (and (Node X) (Node W) (Node Y) (Node Z) (Node T)
                     (and (< W X Y Z T)
                          (edge W X) (edge X Y) (edge Y Z) (edge Z T)
                          (edge W Y) (edge W Z) (edge W T)
                          (edge X Z) (edge X T) (edge Y T)
                          )))))

(assert (forall ((X Int) (W Int) (Y Int) (Z Int) (T Int))
           (not (and (Node X) (Node W) (Node Y) (Node Z) (Node T)
                     (and (< W X Y Z T)
                          (not (edge W X)) (not (edge X Y)) (not (edge Y Z)) (not (edge Z T))
                          (not (edge W Y)) (not (edge W Z)) (not (edge W T))
                          (not (edge X Z)) (not (edge X T)) (not (edge Y T))
                          )))))

(check-sat)
(exit)
